(set-info :category "industrial")
(set-info :status sat)
(declare-fun x00 () (_ BitVec 8))
(declare-fun x02 () (_ BitVec 8))
(declare-fun x04 () (_ BitVec 8))
(declare-fun x06 () (_ BitVec 8))
(declare-fun x08 () (_ BitVec 8))
(declare-fun x10 () (_ BitVec 8))
(declare-fun x11 () (_ BitVec 8))
(declare-fun x13 () (_ BitVec 8))
(declare-fun x14 () (_ BitVec 8))
(declare-fun x15 () (_ BitVec 8))
(declare-fun x17 () (_ BitVec 8))
(declare-fun x18 () (_ BitVec 8))
(declare-fun x21 () (_ BitVec 8))
(declare-fun x23 () (_ BitVec 8))
(declare-fun x25 () (_ BitVec 8))
(declare-fun x27 () (_ BitVec 8))
(declare-fun x31 () (_ BitVec 8))
(declare-fun x32 () (_ BitVec 8))
(declare-fun x33 () (_ BitVec 8))
(declare-fun x35 () (_ BitVec 8))
(declare-fun x36 () (_ BitVec 8))
(declare-fun x37 () (_ BitVec 8))
(declare-fun x40 () (_ BitVec 8))
(declare-fun x46 () (_ BitVec 8))
(declare-fun x48 () (_ BitVec 8))
(declare-fun x51 () (_ BitVec 8))
(declare-fun x52 () (_ BitVec 8))
(declare-fun x53 () (_ BitVec 8))
(declare-fun x54 () (_ BitVec 8))
(declare-fun x57 () (_ BitVec 8))
(declare-fun x58 () (_ BitVec 8))
(declare-fun x61 () (_ BitVec 8))
(declare-fun x62 () (_ BitVec 8))
(declare-fun x63 () (_ BitVec 8))
(declare-fun x64 () (_ BitVec 8))
(declare-fun x68 () (_ BitVec 8))
(declare-fun x70 () (_ BitVec 8))
(declare-fun x72 () (_ BitVec 8))
(declare-fun x73 () (_ BitVec 8))
(declare-fun x74 () (_ BitVec 8))
(declare-fun x75 () (_ BitVec 8))
(declare-fun x77 () (_ BitVec 8))
(declare-fun x78 () (_ BitVec 8))
(declare-fun x81 () (_ BitVec 8))
(declare-fun x86 () (_ BitVec 8))
(declare-fun x87 () (_ BitVec 8))
(declare-fun x88 () (_ BitVec 8))
(assert (bvult x00 (_ bv9 8)))
(assert (bvult x02 (_ bv9 8)))
(assert (bvult x04 (_ bv9 8)))
(assert (bvult x06 (_ bv9 8)))
(assert (bvult x08 (_ bv9 8)))
(assert (bvult x10 (_ bv9 8)))
(assert (bvult x11 (_ bv9 8)))
(assert (bvult x13 (_ bv9 8)))
(assert (bvult x14 (_ bv9 8)))
(assert (bvult x15 (_ bv9 8)))
(assert (bvult x17 (_ bv9 8)))
(assert (bvult x18 (_ bv9 8)))
(assert (bvult x21 (_ bv9 8)))
(assert (bvult x23 (_ bv9 8)))
(assert (bvult x25 (_ bv9 8)))
(assert (bvult x27 (_ bv9 8)))
(assert (bvult x31 (_ bv9 8)))
(assert (bvult x32 (_ bv9 8)))
(assert (bvult x33 (_ bv9 8)))
(assert (bvult x35 (_ bv9 8)))
(assert (bvult x36 (_ bv9 8)))
(assert (bvult x37 (_ bv9 8)))
(assert (bvult x40 (_ bv9 8)))
(assert (bvult x46 (_ bv9 8)))
(assert (bvult x48 (_ bv9 8)))
(assert (bvult x51 (_ bv9 8)))
(assert (bvult x52 (_ bv9 8)))
(assert (bvult x53 (_ bv9 8)))
(assert (bvult x54 (_ bv9 8)))
(assert (bvult x57 (_ bv9 8)))
(assert (bvult x58 (_ bv9 8)))
(assert (bvult x61 (_ bv9 8)))
(assert (bvult x62 (_ bv9 8)))
(assert (bvult x63 (_ bv9 8)))
(assert (bvult x64 (_ bv9 8)))
(assert (bvult x68 (_ bv9 8)))
(assert (bvult x70 (_ bv9 8)))
(assert (bvult x72 (_ bv9 8)))
(assert (bvult x73 (_ bv9 8)))
(assert (bvult x74 (_ bv9 8)))
(assert (bvult x75 (_ bv9 8)))
(assert (bvult x77 (_ bv9 8)))
(assert (bvult x78 (_ bv9 8)))
(assert (bvult x81 (_ bv9 8)))
(assert (bvult x86 (_ bv9 8)))
(assert (bvult x87 (_ bv9 8)))
(assert (bvult x88 (_ bv9 8)))
(assert (not (= x00 (_ bv8 8))))
(assert (not (= x00 x02)))
(assert (not (= x00 (_ bv9 8))))
(assert (not (= x00 x04)))
(assert (not (= x00 (_ bv3 8))))
(assert (not (= x00 x06)))
(assert (not (= x00 (_ bv2 8))))
(assert (not (= x00 x08)))
(assert (not (= (_ bv8 8) x02)))
(assert (not (= (_ bv8 8) (_ bv9 8))))
(assert (not (= (_ bv8 8) x04)))
(assert (not (= (_ bv8 8) (_ bv3 8))))
(assert (not (= (_ bv8 8) x06)))
(assert (not (= (_ bv8 8) (_ bv2 8))))
(assert (not (= (_ bv8 8) x08)))
(assert (not (= x02 (_ bv9 8))))
(assert (not (= x02 x04)))
(assert (not (= x02 (_ bv3 8))))
(assert (not (= x02 x06)))
(assert (not (= x02 (_ bv2 8))))
(assert (not (= x02 x08)))
(assert (not (= (_ bv9 8) x04)))
(assert (not (= (_ bv9 8) (_ bv3 8))))
(assert (not (= (_ bv9 8) x06)))
(assert (not (= (_ bv9 8) (_ bv2 8))))
(assert (not (= (_ bv9 8) x08)))
(assert (not (= x04 (_ bv3 8))))
(assert (not (= x04 x06)))
(assert (not (= x04 (_ bv2 8))))
(assert (not (= x04 x08)))
(assert (not (= (_ bv3 8) x06)))
(assert (not (= (_ bv3 8) (_ bv2 8))))
(assert (not (= (_ bv3 8) x08)))
(assert (not (= x06 (_ bv2 8))))
(assert (not (= x06 x08)))
(assert (not (= (_ bv2 8) x08)))
(assert (not (= x10 x11)))
(assert (not (= x10 (_ bv7 8))))
(assert (not (= x10 x13)))
(assert (not (= x10 x14)))
(assert (not (= x10 x15)))
(assert (not (= x10 (_ bv4 8))))
(assert (not (= x10 x17)))
(assert (not (= x10 x18)))
(assert (not (= x11 (_ bv7 8))))
(assert (not (= x11 x13)))
(assert (not (= x11 x14)))
(assert (not (= x11 x15)))
(assert (not (= x11 (_ bv4 8))))
(assert (not (= x11 x17)))
(assert (not (= x11 x18)))
(assert (not (= (_ bv7 8) x13)))
(assert (not (= (_ bv7 8) x14)))
(assert (not (= (_ bv7 8) x15)))
(assert (not (= (_ bv7 8) (_ bv4 8))))
(assert (not (= (_ bv7 8) x17)))
(assert (not (= (_ bv7 8) x18)))
(assert (not (= x13 x14)))
(assert (not (= x13 x15)))
(assert (not (= x13 (_ bv4 8))))
(assert (not (= x13 x17)))
(assert (not (= x13 x18)))
(assert (not (= x14 x15)))
(assert (not (= x14 (_ bv4 8))))
(assert (not (= x14 x17)))
(assert (not (= x14 x18)))
(assert (not (= x15 (_ bv4 8))))
(assert (not (= x15 x17)))
(assert (not (= x15 x18)))
(assert (not (= (_ bv4 8) x17)))
(assert (not (= (_ bv4 8) x18)))
(assert (not (= x17 x18)))
(assert (not (= (_ bv6 8) x21)))
(assert (not (= (_ bv6 8) (_ bv9 8))))
(assert (not (= (_ bv6 8) x23)))
(assert (not (= (_ bv6 8) (_ bv4 8))))
(assert (not (= (_ bv6 8) x25)))
(assert (not (= (_ bv6 8) (_ bv3 8))))
(assert (not (= (_ bv6 8) x27)))
(assert (not (= (_ bv6 8) (_ bv5 8))))
(assert (not (= x21 (_ bv9 8))))
(assert (not (= x21 x23)))
(assert (not (= x21 (_ bv4 8))))
(assert (not (= x21 x25)))
(assert (not (= x21 (_ bv3 8))))
(assert (not (= x21 x27)))
(assert (not (= x21 (_ bv5 8))))
(assert (not (= (_ bv9 8) x23)))
(assert (not (= (_ bv9 8) (_ bv4 8))))
(assert (not (= (_ bv9 8) x25)))
(assert (not (= (_ bv9 8) (_ bv3 8))))
(assert (not (= (_ bv9 8) x27)))
(assert (not (= (_ bv9 8) (_ bv5 8))))
(assert (not (= x23 (_ bv4 8))))
(assert (not (= x23 x25)))
(assert (not (= x23 (_ bv3 8))))
(assert (not (= x23 x27)))
(assert (not (= x23 (_ bv5 8))))
(assert (not (= (_ bv4 8) x25)))
(assert (not (= (_ bv4 8) (_ bv3 8))))
(assert (not (= (_ bv4 8) x27)))
(assert (not (= (_ bv4 8) (_ bv5 8))))
(assert (not (= x25 (_ bv3 8))))
(assert (not (= x25 x27)))
(assert (not (= x25 (_ bv5 8))))
(assert (not (= (_ bv3 8) x27)))
(assert (not (= (_ bv3 8) (_ bv5 8))))
(assert (not (= x27 (_ bv5 8))))
(assert (not (= (_ bv8 8) x31)))
(assert (not (= (_ bv8 8) x32)))
(assert (not (= (_ bv8 8) x33)))
(assert (not (= (_ bv8 8) (_ bv1 8))))
(assert (not (= (_ bv8 8) x35)))
(assert (not (= (_ bv8 8) x36)))
(assert (not (= (_ bv8 8) x37)))
(assert (not (= (_ bv8 8) (_ bv2 8))))
(assert (not (= x31 x32)))
(assert (not (= x31 x33)))
(assert (not (= x31 (_ bv1 8))))
(assert (not (= x31 x35)))
(assert (not (= x31 x36)))
(assert (not (= x31 x37)))
(assert (not (= x31 (_ bv2 8))))
(assert (not (= x32 x33)))
(assert (not (= x32 (_ bv1 8))))
(assert (not (= x32 x35)))
(assert (not (= x32 x36)))
(assert (not (= x32 x37)))
(assert (not (= x32 (_ bv2 8))))
(assert (not (= x33 (_ bv1 8))))
(assert (not (= x33 x35)))
(assert (not (= x33 x36)))
(assert (not (= x33 x37)))
(assert (not (= x33 (_ bv2 8))))
(assert (not (= (_ bv1 8) x35)))
(assert (not (= (_ bv1 8) x36)))
(assert (not (= (_ bv1 8) x37)))
(assert (not (= (_ bv1 8) (_ bv2 8))))
(assert (not (= x35 x36)))
(assert (not (= x35 x37)))
(assert (not (= x35 (_ bv2 8))))
(assert (not (= x36 x37)))
(assert (not (= x36 (_ bv2 8))))
(assert (not (= x37 (_ bv2 8))))
(assert (not (= x40 (_ bv2 8))))
(assert (not (= x40 (_ bv5 8))))
(assert (not (= x40 (_ bv6 8))))
(assert (not (= x40 (_ bv3 8))))
(assert (not (= x40 (_ bv7 8))))
(assert (not (= x40 x46)))
(assert (not (= x40 (_ bv1 8))))
(assert (not (= x40 x48)))
(assert (not (= (_ bv2 8) (_ bv5 8))))
(assert (not (= (_ bv2 8) (_ bv6 8))))
(assert (not (= (_ bv2 8) (_ bv3 8))))
(assert (not (= (_ bv2 8) (_ bv7 8))))
(assert (not (= (_ bv2 8) x46)))
(assert (not (= (_ bv2 8) (_ bv1 8))))
(assert (not (= (_ bv2 8) x48)))
(assert (not (= (_ bv5 8) (_ bv6 8))))
(assert (not (= (_ bv5 8) (_ bv3 8))))
(assert (not (= (_ bv5 8) (_ bv7 8))))
(assert (not (= (_ bv5 8) x46)))
(assert (not (= (_ bv5 8) (_ bv1 8))))
(assert (not (= (_ bv5 8) x48)))
(assert (not (= (_ bv6 8) (_ bv3 8))))
(assert (not (= (_ bv6 8) (_ bv7 8))))
(assert (not (= (_ bv6 8) x46)))
(assert (not (= (_ bv6 8) (_ bv1 8))))
(assert (not (= (_ bv6 8) x48)))
(assert (not (= (_ bv3 8) (_ bv7 8))))
(assert (not (= (_ bv3 8) x46)))
(assert (not (= (_ bv3 8) (_ bv1 8))))
(assert (not (= (_ bv3 8) x48)))
(assert (not (= (_ bv7 8) x46)))
(assert (not (= (_ bv7 8) (_ bv1 8))))
(assert (not (= (_ bv7 8) x48)))
(assert (not (= x46 (_ bv1 8))))
(assert (not (= x46 x48)))
(assert (not (= (_ bv1 8) x48)))
(assert (not (= (_ bv4 8) x51)))
(assert (not (= (_ bv4 8) x52)))
(assert (not (= (_ bv4 8) x53)))
(assert (not (= (_ bv4 8) x54)))
(assert (not (= (_ bv4 8) (_ bv9 8))))
(assert (not (= (_ bv4 8) (_ bv5 8))))
(assert (not (= (_ bv4 8) x57)))
(assert (not (= (_ bv4 8) x58)))
(assert (not (= x51 x52)))
(assert (not (= x51 x53)))
(assert (not (= x51 x54)))
(assert (not (= x51 (_ bv9 8))))
(assert (not (= x51 (_ bv5 8))))
(assert (not (= x51 x57)))
(assert (not (= x51 x58)))
(assert (not (= x52 x53)))
(assert (not (= x52 x54)))
(assert (not (= x52 (_ bv9 8))))
(assert (not (= x52 (_ bv5 8))))
(assert (not (= x52 x57)))
(assert (not (= x52 x58)))
(assert (not (= x53 x54)))
(assert (not (= x53 (_ bv9 8))))
(assert (not (= x53 (_ bv5 8))))
(assert (not (= x53 x57)))
(assert (not (= x53 x58)))
(assert (not (= x54 (_ bv9 8))))
(assert (not (= x54 (_ bv5 8))))
(assert (not (= x54 x57)))
(assert (not (= x54 x58)))
(assert (not (= (_ bv9 8) (_ bv5 8))))
(assert (not (= (_ bv9 8) x57)))
(assert (not (= (_ bv9 8) x58)))
(assert (not (= (_ bv5 8) x57)))
(assert (not (= (_ bv5 8) x58)))
(assert (not (= x57 x58)))
(assert (not (= (_ bv1 8) x61)))
(assert (not (= (_ bv1 8) x62)))
(assert (not (= (_ bv1 8) x63)))
(assert (not (= (_ bv1 8) x64)))
(assert (not (= (_ bv1 8) (_ bv2 8))))
(assert (not (= (_ bv1 8) (_ bv9 8))))
(assert (not (= (_ bv1 8) (_ bv3 8))))
(assert (not (= (_ bv1 8) x68)))
(assert (not (= x61 x62)))
(assert (not (= x61 x63)))
(assert (not (= x61 x64)))
(assert (not (= x61 (_ bv2 8))))
(assert (not (= x61 (_ bv9 8))))
(assert (not (= x61 (_ bv3 8))))
(assert (not (= x61 x68)))
(assert (not (= x62 x63)))
(assert (not (= x62 x64)))
(assert (not (= x62 (_ bv2 8))))
(assert (not (= x62 (_ bv9 8))))
(assert (not (= x62 (_ bv3 8))))
(assert (not (= x62 x68)))
(assert (not (= x63 x64)))
(assert (not (= x63 (_ bv2 8))))
(assert (not (= x63 (_ bv9 8))))
(assert (not (= x63 (_ bv3 8))))
(assert (not (= x63 x68)))
(assert (not (= x64 (_ bv2 8))))
(assert (not (= x64 (_ bv9 8))))
(assert (not (= x64 (_ bv3 8))))
(assert (not (= x64 x68)))
(assert (not (= (_ bv2 8) (_ bv9 8))))
(assert (not (= (_ bv2 8) (_ bv3 8))))
(assert (not (= (_ bv2 8) x68)))
(assert (not (= (_ bv9 8) (_ bv3 8))))
(assert (not (= (_ bv9 8) x68)))
(assert (not (= (_ bv3 8) x68)))
(assert (not (= x70 (_ bv4 8))))
(assert (not (= x70 x72)))
(assert (not (= x70 x73)))
(assert (not (= x70 x74)))
(assert (not (= x70 x75)))
(assert (not (= x70 (_ bv6 8))))
(assert (not (= x70 x77)))
(assert (not (= x70 x78)))
(assert (not (= (_ bv4 8) x72)))
(assert (not (= (_ bv4 8) x73)))
(assert (not (= (_ bv4 8) x74)))
(assert (not (= (_ bv4 8) x75)))
(assert (not (= (_ bv4 8) (_ bv6 8))))
(assert (not (= (_ bv4 8) x77)))
(assert (not (= (_ bv4 8) x78)))
(assert (not (= x72 x73)))
(assert (not (= x72 x74)))
(assert (not (= x72 x75)))
(assert (not (= x72 (_ bv6 8))))
(assert (not (= x72 x77)))
(assert (not (= x72 x78)))
(assert (not (= x73 x74)))
(assert (not (= x73 x75)))
(assert (not (= x73 (_ bv6 8))))
(assert (not (= x73 x77)))
(assert (not (= x73 x78)))
(assert (not (= x74 x75)))
(assert (not (= x74 (_ bv6 8))))
(assert (not (= x74 x77)))
(assert (not (= x74 x78)))
(assert (not (= x75 (_ bv6 8))))
(assert (not (= x75 x77)))
(assert (not (= x75 x78)))
(assert (not (= (_ bv6 8) x77)))
(assert (not (= (_ bv6 8) x78)))
(assert (not (= x77 x78)))
(assert (not (= (_ bv3 8) x81)))
(assert (not (= (_ bv3 8) (_ bv6 8))))
(assert (not (= (_ bv3 8) (_ bv7 8))))
(assert (not (= (_ bv3 8) (_ bv8 8))))
(assert (not (= (_ bv3 8) (_ bv5 8))))
(assert (not (= (_ bv3 8) x86)))
(assert (not (= (_ bv3 8) x87)))
(assert (not (= (_ bv3 8) x88)))
(assert (not (= x81 (_ bv6 8))))
(assert (not (= x81 (_ bv7 8))))
(assert (not (= x81 (_ bv8 8))))
(assert (not (= x81 (_ bv5 8))))
(assert (not (= x81 x86)))
(assert (not (= x81 x87)))
(assert (not (= x81 x88)))
(assert (not (= (_ bv6 8) (_ bv7 8))))
(assert (not (= (_ bv6 8) (_ bv8 8))))
(assert (not (= (_ bv6 8) (_ bv5 8))))
(assert (not (= (_ bv6 8) x86)))
(assert (not (= (_ bv6 8) x87)))
(assert (not (= (_ bv6 8) x88)))
(assert (not (= (_ bv7 8) (_ bv8 8))))
(assert (not (= (_ bv7 8) (_ bv5 8))))
(assert (not (= (_ bv7 8) x86)))
(assert (not (= (_ bv7 8) x87)))
(assert (not (= (_ bv7 8) x88)))
(assert (not (= (_ bv8 8) (_ bv5 8))))
(assert (not (= (_ bv8 8) x86)))
(assert (not (= (_ bv8 8) x87)))
(assert (not (= (_ bv8 8) x88)))
(assert (not (= (_ bv5 8) x86)))
(assert (not (= (_ bv5 8) x87)))
(assert (not (= (_ bv5 8) x88)))
(assert (not (= x86 x87)))
(assert (not (= x86 x88)))
(assert (not (= x87 x88)))
(assert (not (= x00 x10)))
(assert (not (= x00 (_ bv6 8))))
(assert (not (= x00 (_ bv8 8))))
(assert (not (= x00 x40)))
(assert (not (= x00 (_ bv4 8))))
(assert (not (= x00 (_ bv1 8))))
(assert (not (= x00 x70)))
(assert (not (= x00 (_ bv3 8))))
(assert (not (= x10 (_ bv6 8))))
(assert (not (= x10 (_ bv8 8))))
(assert (not (= x10 x40)))
(assert (not (= x10 (_ bv4 8))))
(assert (not (= x10 (_ bv1 8))))
(assert (not (= x10 x70)))
(assert (not (= x10 (_ bv3 8))))
(assert (not (= (_ bv6 8) (_ bv8 8))))
(assert (not (= (_ bv6 8) x40)))
(assert (not (= (_ bv6 8) (_ bv4 8))))
(assert (not (= (_ bv6 8) (_ bv1 8))))
(assert (not (= (_ bv6 8) x70)))
(assert (not (= (_ bv6 8) (_ bv3 8))))
(assert (not (= (_ bv8 8) x40)))
(assert (not (= (_ bv8 8) (_ bv4 8))))
(assert (not (= (_ bv8 8) (_ bv1 8))))
(assert (not (= (_ bv8 8) x70)))
(assert (not (= (_ bv8 8) (_ bv3 8))))
(assert (not (= x40 (_ bv4 8))))
(assert (not (= x40 (_ bv1 8))))
(assert (not (= x40 x70)))
(assert (not (= x40 (_ bv3 8))))
(assert (not (= (_ bv4 8) (_ bv1 8))))
(assert (not (= (_ bv4 8) x70)))
(assert (not (= (_ bv4 8) (_ bv3 8))))
(assert (not (= (_ bv1 8) x70)))
(assert (not (= (_ bv1 8) (_ bv3 8))))
(assert (not (= x70 (_ bv3 8))))
(assert (not (= (_ bv8 8) x11)))
(assert (not (= (_ bv8 8) x21)))
(assert (not (= (_ bv8 8) x31)))
(assert (not (= (_ bv8 8) (_ bv2 8))))
(assert (not (= (_ bv8 8) x51)))
(assert (not (= (_ bv8 8) x61)))
(assert (not (= (_ bv8 8) (_ bv4 8))))
(assert (not (= (_ bv8 8) x81)))
(assert (not (= x11 x21)))
(assert (not (= x11 x31)))
(assert (not (= x11 (_ bv2 8))))
(assert (not (= x11 x51)))
(assert (not (= x11 x61)))
(assert (not (= x11 (_ bv4 8))))
(assert (not (= x11 x81)))
(assert (not (= x21 x31)))
(assert (not (= x21 (_ bv2 8))))
(assert (not (= x21 x51)))
(assert (not (= x21 x61)))
(assert (not (= x21 (_ bv4 8))))
(assert (not (= x21 x81)))
(assert (not (= x31 (_ bv2 8))))
(assert (not (= x31 x51)))
(assert (not (= x31 x61)))
(assert (not (= x31 (_ bv4 8))))
(assert (not (= x31 x81)))
(assert (not (= (_ bv2 8) x51)))
(assert (not (= (_ bv2 8) x61)))
(assert (not (= (_ bv2 8) (_ bv4 8))))
(assert (not (= (_ bv2 8) x81)))
(assert (not (= x51 x61)))
(assert (not (= x51 (_ bv4 8))))
(assert (not (= x51 x81)))
(assert (not (= x61 (_ bv4 8))))
(assert (not (= x61 x81)))
(assert (not (= (_ bv4 8) x81)))
(assert (not (= x02 (_ bv7 8))))
(assert (not (= x02 (_ bv9 8))))
(assert (not (= x02 x32)))
(assert (not (= x02 (_ bv5 8))))
(assert (not (= x02 x52)))
(assert (not (= x02 x62)))
(assert (not (= x02 x72)))
(assert (not (= x02 (_ bv6 8))))
(assert (not (= (_ bv7 8) (_ bv9 8))))
(assert (not (= (_ bv7 8) x32)))
(assert (not (= (_ bv7 8) (_ bv5 8))))
(assert (not (= (_ bv7 8) x52)))
(assert (not (= (_ bv7 8) x62)))
(assert (not (= (_ bv7 8) x72)))
(assert (not (= (_ bv7 8) (_ bv6 8))))
(assert (not (= (_ bv9 8) x32)))
(assert (not (= (_ bv9 8) (_ bv5 8))))
(assert (not (= (_ bv9 8) x52)))
(assert (not (= (_ bv9 8) x62)))
(assert (not (= (_ bv9 8) x72)))
(assert (not (= (_ bv9 8) (_ bv6 8))))
(assert (not (= x32 (_ bv5 8))))
(assert (not (= x32 x52)))
(assert (not (= x32 x62)))
(assert (not (= x32 x72)))
(assert (not (= x32 (_ bv6 8))))
(assert (not (= (_ bv5 8) x52)))
(assert (not (= (_ bv5 8) x62)))
(assert (not (= (_ bv5 8) x72)))
(assert (not (= (_ bv5 8) (_ bv6 8))))
(assert (not (= x52 x62)))
(assert (not (= x52 x72)))
(assert (not (= x52 (_ bv6 8))))
(assert (not (= x62 x72)))
(assert (not (= x62 (_ bv6 8))))
(assert (not (= x72 (_ bv6 8))))
(assert (not (= (_ bv9 8) x13)))
(assert (not (= (_ bv9 8) x23)))
(assert (not (= (_ bv9 8) x33)))
(assert (not (= (_ bv9 8) (_ bv6 8))))
(assert (not (= (_ bv9 8) x53)))
(assert (not (= (_ bv9 8) x63)))
(assert (not (= (_ bv9 8) x73)))
(assert (not (= (_ bv9 8) (_ bv7 8))))
(assert (not (= x13 x23)))
(assert (not (= x13 x33)))
(assert (not (= x13 (_ bv6 8))))
(assert (not (= x13 x53)))
(assert (not (= x13 x63)))
(assert (not (= x13 x73)))
(assert (not (= x13 (_ bv7 8))))
(assert (not (= x23 x33)))
(assert (not (= x23 (_ bv6 8))))
(assert (not (= x23 x53)))
(assert (not (= x23 x63)))
(assert (not (= x23 x73)))
(assert (not (= x23 (_ bv7 8))))
(assert (not (= x33 (_ bv6 8))))
(assert (not (= x33 x53)))
(assert (not (= x33 x63)))
(assert (not (= x33 x73)))
(assert (not (= x33 (_ bv7 8))))
(assert (not (= (_ bv6 8) x53)))
(assert (not (= (_ bv6 8) x63)))
(assert (not (= (_ bv6 8) x73)))
(assert (not (= (_ bv6 8) (_ bv7 8))))
(assert (not (= x53 x63)))
(assert (not (= x53 x73)))
(assert (not (= x53 (_ bv7 8))))
(assert (not (= x63 x73)))
(assert (not (= x63 (_ bv7 8))))
(assert (not (= x73 (_ bv7 8))))
(assert (not (= x04 x14)))
(assert (not (= x04 (_ bv4 8))))
(assert (not (= x04 (_ bv1 8))))
(assert (not (= x04 (_ bv3 8))))
(assert (not (= x04 x54)))
(assert (not (= x04 x64)))
(assert (not (= x04 x74)))
(assert (not (= x04 (_ bv8 8))))
(assert (not (= x14 (_ bv4 8))))
(assert (not (= x14 (_ bv1 8))))
(assert (not (= x14 (_ bv3 8))))
(assert (not (= x14 x54)))
(assert (not (= x14 x64)))
(assert (not (= x14 x74)))
(assert (not (= x14 (_ bv8 8))))
(assert (not (= (_ bv4 8) (_ bv1 8))))
(assert (not (= (_ bv4 8) (_ bv3 8))))
(assert (not (= (_ bv4 8) x54)))
(assert (not (= (_ bv4 8) x64)))
(assert (not (= (_ bv4 8) x74)))
(assert (not (= (_ bv4 8) (_ bv8 8))))
(assert (not (= (_ bv1 8) (_ bv3 8))))
(assert (not (= (_ bv1 8) x54)))
(assert (not (= (_ bv1 8) x64)))
(assert (not (= (_ bv1 8) x74)))
(assert (not (= (_ bv1 8) (_ bv8 8))))
(assert (not (= (_ bv3 8) x54)))
(assert (not (= (_ bv3 8) x64)))
(assert (not (= (_ bv3 8) x74)))
(assert (not (= (_ bv3 8) (_ bv8 8))))
(assert (not (= x54 x64)))
(assert (not (= x54 x74)))
(assert (not (= x54 (_ bv8 8))))
(assert (not (= x64 x74)))
(assert (not (= x64 (_ bv8 8))))
(assert (not (= x74 (_ bv8 8))))
(assert (not (= (_ bv3 8) x15)))
(assert (not (= (_ bv3 8) x25)))
(assert (not (= (_ bv3 8) x35)))
(assert (not (= (_ bv3 8) (_ bv7 8))))
(assert (not (= (_ bv3 8) (_ bv9 8))))
(assert (not (= (_ bv3 8) (_ bv2 8))))
(assert (not (= (_ bv3 8) x75)))
(assert (not (= (_ bv3 8) (_ bv5 8))))
(assert (not (= x15 x25)))
(assert (not (= x15 x35)))
(assert (not (= x15 (_ bv7 8))))
(assert (not (= x15 (_ bv9 8))))
(assert (not (= x15 (_ bv2 8))))
(assert (not (= x15 x75)))
(assert (not (= x15 (_ bv5 8))))
(assert (not (= x25 x35)))
(assert (not (= x25 (_ bv7 8))))
(assert (not (= x25 (_ bv9 8))))
(assert (not (= x25 (_ bv2 8))))
(assert (not (= x25 x75)))
(assert (not (= x25 (_ bv5 8))))
(assert (not (= x35 (_ bv7 8))))
(assert (not (= x35 (_ bv9 8))))
(assert (not (= x35 (_ bv2 8))))
(assert (not (= x35 x75)))
(assert (not (= x35 (_ bv5 8))))
(assert (not (= (_ bv7 8) (_ bv9 8))))
(assert (not (= (_ bv7 8) (_ bv2 8))))
(assert (not (= (_ bv7 8) x75)))
(assert (not (= (_ bv7 8) (_ bv5 8))))
(assert (not (= (_ bv9 8) (_ bv2 8))))
(assert (not (= (_ bv9 8) x75)))
(assert (not (= (_ bv9 8) (_ bv5 8))))
(assert (not (= (_ bv2 8) x75)))
(assert (not (= (_ bv2 8) (_ bv5 8))))
(assert (not (= x75 (_ bv5 8))))
(assert (not (= x06 (_ bv4 8))))
(assert (not (= x06 (_ bv3 8))))
(assert (not (= x06 x36)))
(assert (not (= x06 x46)))
(assert (not (= x06 (_ bv5 8))))
(assert (not (= x06 (_ bv9 8))))
(assert (not (= x06 (_ bv6 8))))
(assert (not (= x06 x86)))
(assert (not (= (_ bv4 8) (_ bv3 8))))
(assert (not (= (_ bv4 8) x36)))
(assert (not (= (_ bv4 8) x46)))
(assert (not (= (_ bv4 8) (_ bv5 8))))
(assert (not (= (_ bv4 8) (_ bv9 8))))
(assert (not (= (_ bv4 8) (_ bv6 8))))
(assert (not (= (_ bv4 8) x86)))
(assert (not (= (_ bv3 8) x36)))
(assert (not (= (_ bv3 8) x46)))
(assert (not (= (_ bv3 8) (_ bv5 8))))
(assert (not (= (_ bv3 8) (_ bv9 8))))
(assert (not (= (_ bv3 8) (_ bv6 8))))
(assert (not (= (_ bv3 8) x86)))
(assert (not (= x36 x46)))
(assert (not (= x36 (_ bv5 8))))
(assert (not (= x36 (_ bv9 8))))
(assert (not (= x36 (_ bv6 8))))
(assert (not (= x36 x86)))
(assert (not (= x46 (_ bv5 8))))
(assert (not (= x46 (_ bv9 8))))
(assert (not (= x46 (_ bv6 8))))
(assert (not (= x46 x86)))
(assert (not (= (_ bv5 8) (_ bv9 8))))
(assert (not (= (_ bv5 8) (_ bv6 8))))
(assert (not (= (_ bv5 8) x86)))
(assert (not (= (_ bv9 8) (_ bv6 8))))
(assert (not (= (_ bv9 8) x86)))
(assert (not (= (_ bv6 8) x86)))
(assert (not (= (_ bv2 8) x17)))
(assert (not (= (_ bv2 8) x27)))
(assert (not (= (_ bv2 8) x37)))
(assert (not (= (_ bv2 8) (_ bv1 8))))
(assert (not (= (_ bv2 8) x57)))
(assert (not (= (_ bv2 8) (_ bv3 8))))
(assert (not (= (_ bv2 8) x77)))
(assert (not (= (_ bv2 8) x87)))
(assert (not (= x17 x27)))
(assert (not (= x17 x37)))
(assert (not (= x17 (_ bv1 8))))
(assert (not (= x17 x57)))
(assert (not (= x17 (_ bv3 8))))
(assert (not (= x17 x77)))
(assert (not (= x17 x87)))
(assert (not (= x27 x37)))
(assert (not (= x27 (_ bv1 8))))
(assert (not (= x27 x57)))
(assert (not (= x27 (_ bv3 8))))
(assert (not (= x27 x77)))
(assert (not (= x27 x87)))
(assert (not (= x37 (_ bv1 8))))
(assert (not (= x37 x57)))
(assert (not (= x37 (_ bv3 8))))
(assert (not (= x37 x77)))
(assert (not (= x37 x87)))
(assert (not (= (_ bv1 8) x57)))
(assert (not (= (_ bv1 8) (_ bv3 8))))
(assert (not (= (_ bv1 8) x77)))
(assert (not (= (_ bv1 8) x87)))
(assert (not (= x57 (_ bv3 8))))
(assert (not (= x57 x77)))
(assert (not (= x57 x87)))
(assert (not (= (_ bv3 8) x77)))
(assert (not (= (_ bv3 8) x87)))
(assert (not (= x77 x87)))
(assert (not (= x08 x18)))
(assert (not (= x08 (_ bv5 8))))
(assert (not (= x08 (_ bv2 8))))
(assert (not (= x08 x48)))
(assert (not (= x08 x58)))
(assert (not (= x08 x68)))
(assert (not (= x08 x78)))
(assert (not (= x08 x88)))
(assert (not (= x18 (_ bv5 8))))
(assert (not (= x18 (_ bv2 8))))
(assert (not (= x18 x48)))
(assert (not (= x18 x58)))
(assert (not (= x18 x68)))
(assert (not (= x18 x78)))
(assert (not (= x18 x88)))
(assert (not (= (_ bv5 8) (_ bv2 8))))
(assert (not (= (_ bv5 8) x48)))
(assert (not (= (_ bv5 8) x58)))
(assert (not (= (_ bv5 8) x68)))
(assert (not (= (_ bv5 8) x78)))
(assert (not (= (_ bv5 8) x88)))
(assert (not (= (_ bv2 8) x48)))
(assert (not (= (_ bv2 8) x58)))
(assert (not (= (_ bv2 8) x68)))
(assert (not (= (_ bv2 8) x78)))
(assert (not (= (_ bv2 8) x88)))
(assert (not (= x48 x58)))
(assert (not (= x48 x68)))
(assert (not (= x48 x78)))
(assert (not (= x48 x88)))
(assert (not (= x58 x68)))
(assert (not (= x58 x78)))
(assert (not (= x58 x88)))
(assert (not (= x68 x78)))
(assert (not (= x68 x88)))
(assert (not (= x78 x88)))
(assert (not (= x00 (_ bv8 8))))
(assert (not (= x00 x02)))
(assert (not (= x00 x10)))
(assert (not (= x00 x11)))
(assert (not (= x00 (_ bv7 8))))
(assert (not (= x00 (_ bv6 8))))
(assert (not (= x00 x21)))
(assert (not (= x00 (_ bv9 8))))
(assert (not (= (_ bv8 8) x02)))
(assert (not (= (_ bv8 8) x10)))
(assert (not (= (_ bv8 8) x11)))
(assert (not (= (_ bv8 8) (_ bv7 8))))
(assert (not (= (_ bv8 8) (_ bv6 8))))
(assert (not (= (_ bv8 8) x21)))
(assert (not (= (_ bv8 8) (_ bv9 8))))
(assert (not (= x02 x10)))
(assert (not (= x02 x11)))
(assert (not (= x02 (_ bv7 8))))
(assert (not (= x02 (_ bv6 8))))
(assert (not (= x02 x21)))
(assert (not (= x02 (_ bv9 8))))
(assert (not (= x10 x11)))
(assert (not (= x10 (_ bv7 8))))
(assert (not (= x10 (_ bv6 8))))
(assert (not (= x10 x21)))
(assert (not (= x10 (_ bv9 8))))
(assert (not (= x11 (_ bv7 8))))
(assert (not (= x11 (_ bv6 8))))
(assert (not (= x11 x21)))
(assert (not (= x11 (_ bv9 8))))
(assert (not (= (_ bv7 8) (_ bv6 8))))
(assert (not (= (_ bv7 8) x21)))
(assert (not (= (_ bv7 8) (_ bv9 8))))
(assert (not (= (_ bv6 8) x21)))
(assert (not (= (_ bv6 8) (_ bv9 8))))
(assert (not (= x21 (_ bv9 8))))
(assert (not (= (_ bv9 8) x04)))
(assert (not (= (_ bv9 8) (_ bv3 8))))
(assert (not (= (_ bv9 8) x13)))
(assert (not (= (_ bv9 8) x14)))
(assert (not (= (_ bv9 8) x15)))
(assert (not (= (_ bv9 8) x23)))
(assert (not (= (_ bv9 8) (_ bv4 8))))
(assert (not (= (_ bv9 8) x25)))
(assert (not (= x04 (_ bv3 8))))
(assert (not (= x04 x13)))
(assert (not (= x04 x14)))
(assert (not (= x04 x15)))
(assert (not (= x04 x23)))
(assert (not (= x04 (_ bv4 8))))
(assert (not (= x04 x25)))
(assert (not (= (_ bv3 8) x13)))
(assert (not (= (_ bv3 8) x14)))
(assert (not (= (_ bv3 8) x15)))
(assert (not (= (_ bv3 8) x23)))
(assert (not (= (_ bv3 8) (_ bv4 8))))
(assert (not (= (_ bv3 8) x25)))
(assert (not (= x13 x14)))
(assert (not (= x13 x15)))
(assert (not (= x13 x23)))
(assert (not (= x13 (_ bv4 8))))
(assert (not (= x13 x25)))
(assert (not (= x14 x15)))
(assert (not (= x14 x23)))
(assert (not (= x14 (_ bv4 8))))
(assert (not (= x14 x25)))
(assert (not (= x15 x23)))
(assert (not (= x15 (_ bv4 8))))
(assert (not (= x15 x25)))
(assert (not (= x23 (_ bv4 8))))
(assert (not (= x23 x25)))
(assert (not (= (_ bv4 8) x25)))
(assert (not (= x06 (_ bv2 8))))
(assert (not (= x06 x08)))
(assert (not (= x06 (_ bv4 8))))
(assert (not (= x06 x17)))
(assert (not (= x06 x18)))
(assert (not (= x06 (_ bv3 8))))
(assert (not (= x06 x27)))
(assert (not (= x06 (_ bv5 8))))
(assert (not (= (_ bv2 8) x08)))
(assert (not (= (_ bv2 8) (_ bv4 8))))
(assert (not (= (_ bv2 8) x17)))
(assert (not (= (_ bv2 8) x18)))
(assert (not (= (_ bv2 8) (_ bv3 8))))
(assert (not (= (_ bv2 8) x27)))
(assert (not (= (_ bv2 8) (_ bv5 8))))
(assert (not (= x08 (_ bv4 8))))
(assert (not (= x08 x17)))
(assert (not (= x08 x18)))
(assert (not (= x08 (_ bv3 8))))
(assert (not (= x08 x27)))
(assert (not (= x08 (_ bv5 8))))
(assert (not (= (_ bv4 8) x17)))
(assert (not (= (_ bv4 8) x18)))
(assert (not (= (_ bv4 8) (_ bv3 8))))
(assert (not (= (_ bv4 8) x27)))
(assert (not (= (_ bv4 8) (_ bv5 8))))
(assert (not (= x17 x18)))
(assert (not (= x17 (_ bv3 8))))
(assert (not (= x17 x27)))
(assert (not (= x17 (_ bv5 8))))
(assert (not (= x18 (_ bv3 8))))
(assert (not (= x18 x27)))
(assert (not (= x18 (_ bv5 8))))
(assert (not (= (_ bv3 8) x27)))
(assert (not (= (_ bv3 8) (_ bv5 8))))
(assert (not (= x27 (_ bv5 8))))
(assert (not (= (_ bv8 8) x31)))
(assert (not (= (_ bv8 8) x32)))
(assert (not (= (_ bv8 8) x40)))
(assert (not (= (_ bv8 8) (_ bv2 8))))
(assert (not (= (_ bv8 8) (_ bv5 8))))
(assert (not (= (_ bv8 8) (_ bv4 8))))
(assert (not (= (_ bv8 8) x51)))
(assert (not (= (_ bv8 8) x52)))
(assert (not (= x31 x32)))
(assert (not (= x31 x40)))
(assert (not (= x31 (_ bv2 8))))
(assert (not (= x31 (_ bv5 8))))
(assert (not (= x31 (_ bv4 8))))
(assert (not (= x31 x51)))
(assert (not (= x31 x52)))
(assert (not (= x32 x40)))
(assert (not (= x32 (_ bv2 8))))
(assert (not (= x32 (_ bv5 8))))
(assert (not (= x32 (_ bv4 8))))
(assert (not (= x32 x51)))
(assert (not (= x32 x52)))
(assert (not (= x40 (_ bv2 8))))
(assert (not (= x40 (_ bv5 8))))
(assert (not (= x40 (_ bv4 8))))
(assert (not (= x40 x51)))
(assert (not (= x40 x52)))
(assert (not (= (_ bv2 8) (_ bv5 8))))
(assert (not (= (_ bv2 8) (_ bv4 8))))
(assert (not (= (_ bv2 8) x51)))
(assert (not (= (_ bv2 8) x52)))
(assert (not (= (_ bv5 8) (_ bv4 8))))
(assert (not (= (_ bv5 8) x51)))
(assert (not (= (_ bv5 8) x52)))
(assert (not (= (_ bv4 8) x51)))
(assert (not (= (_ bv4 8) x52)))
(assert (not (= x51 x52)))
(assert (not (= x33 (_ bv1 8))))
(assert (not (= x33 x35)))
(assert (not (= x33 (_ bv6 8))))
(assert (not (= x33 (_ bv3 8))))
(assert (not (= x33 (_ bv7 8))))
(assert (not (= x33 x53)))
(assert (not (= x33 x54)))
(assert (not (= x33 (_ bv9 8))))
(assert (not (= (_ bv1 8) x35)))
(assert (not (= (_ bv1 8) (_ bv6 8))))
(assert (not (= (_ bv1 8) (_ bv3 8))))
(assert (not (= (_ bv1 8) (_ bv7 8))))
(assert (not (= (_ bv1 8) x53)))
(assert (not (= (_ bv1 8) x54)))
(assert (not (= (_ bv1 8) (_ bv9 8))))
(assert (not (= x35 (_ bv6 8))))
(assert (not (= x35 (_ bv3 8))))
(assert (not (= x35 (_ bv7 8))))
(assert (not (= x35 x53)))
(assert (not (= x35 x54)))
(assert (not (= x35 (_ bv9 8))))
(assert (not (= (_ bv6 8) (_ bv3 8))))
(assert (not (= (_ bv6 8) (_ bv7 8))))
(assert (not (= (_ bv6 8) x53)))
(assert (not (= (_ bv6 8) x54)))
(assert (not (= (_ bv6 8) (_ bv9 8))))
(assert (not (= (_ bv3 8) (_ bv7 8))))
(assert (not (= (_ bv3 8) x53)))
(assert (not (= (_ bv3 8) x54)))
(assert (not (= (_ bv3 8) (_ bv9 8))))
(assert (not (= (_ bv7 8) x53)))
(assert (not (= (_ bv7 8) x54)))
(assert (not (= (_ bv7 8) (_ bv9 8))))
(assert (not (= x53 x54)))
(assert (not (= x53 (_ bv9 8))))
(assert (not (= x54 (_ bv9 8))))
(assert (not (= x36 x37)))
(assert (not (= x36 (_ bv2 8))))
(assert (not (= x36 x46)))
(assert (not (= x36 (_ bv1 8))))
(assert (not (= x36 x48)))
(assert (not (= x36 (_ bv5 8))))
(assert (not (= x36 x57)))
(assert (not (= x36 x58)))
(assert (not (= x37 (_ bv2 8))))
(assert (not (= x37 x46)))
(assert (not (= x37 (_ bv1 8))))
(assert (not (= x37 x48)))
(assert (not (= x37 (_ bv5 8))))
(assert (not (= x37 x57)))
(assert (not (= x37 x58)))
(assert (not (= (_ bv2 8) x46)))
(assert (not (= (_ bv2 8) (_ bv1 8))))
(assert (not (= (_ bv2 8) x48)))
(assert (not (= (_ bv2 8) (_ bv5 8))))
(assert (not (= (_ bv2 8) x57)))
(assert (not (= (_ bv2 8) x58)))
(assert (not (= x46 (_ bv1 8))))
(assert (not (= x46 x48)))
(assert (not (= x46 (_ bv5 8))))
(assert (not (= x46 x57)))
(assert (not (= x46 x58)))
(assert (not (= (_ bv1 8) x48)))
(assert (not (= (_ bv1 8) (_ bv5 8))))
(assert (not (= (_ bv1 8) x57)))
(assert (not (= (_ bv1 8) x58)))
(assert (not (= x48 (_ bv5 8))))
(assert (not (= x48 x57)))
(assert (not (= x48 x58)))
(assert (not (= (_ bv5 8) x57)))
(assert (not (= (_ bv5 8) x58)))
(assert (not (= x57 x58)))
(assert (not (= (_ bv1 8) x61)))
(assert (not (= (_ bv1 8) x62)))
(assert (not (= (_ bv1 8) x70)))
(assert (not (= (_ bv1 8) (_ bv4 8))))
(assert (not (= (_ bv1 8) x72)))
(assert (not (= (_ bv1 8) (_ bv3 8))))
(assert (not (= (_ bv1 8) x81)))
(assert (not (= (_ bv1 8) (_ bv6 8))))
(assert (not (= x61 x62)))
(assert (not (= x61 x70)))
(assert (not (= x61 (_ bv4 8))))
(assert (not (= x61 x72)))
(assert (not (= x61 (_ bv3 8))))
(assert (not (= x61 x81)))
(assert (not (= x61 (_ bv6 8))))
(assert (not (= x62 x70)))
(assert (not (= x62 (_ bv4 8))))
(assert (not (= x62 x72)))
(assert (not (= x62 (_ bv3 8))))
(assert (not (= x62 x81)))
(assert (not (= x62 (_ bv6 8))))
(assert (not (= x70 (_ bv4 8))))
(assert (not (= x70 x72)))
(assert (not (= x70 (_ bv3 8))))
(assert (not (= x70 x81)))
(assert (not (= x70 (_ bv6 8))))
(assert (not (= (_ bv4 8) x72)))
(assert (not (= (_ bv4 8) (_ bv3 8))))
(assert (not (= (_ bv4 8) x81)))
(assert (not (= (_ bv4 8) (_ bv6 8))))
(assert (not (= x72 (_ bv3 8))))
(assert (not (= x72 x81)))
(assert (not (= x72 (_ bv6 8))))
(assert (not (= (_ bv3 8) x81)))
(assert (not (= (_ bv3 8) (_ bv6 8))))
(assert (not (= x81 (_ bv6 8))))
(assert (not (= x63 x64)))
(assert (not (= x63 (_ bv2 8))))
(assert (not (= x63 x73)))
(assert (not (= x63 x74)))
(assert (not (= x63 x75)))
(assert (not (= x63 (_ bv7 8))))
(assert (not (= x63 (_ bv8 8))))
(assert (not (= x63 (_ bv5 8))))
(assert (not (= x64 (_ bv2 8))))
(assert (not (= x64 x73)))
(assert (not (= x64 x74)))
(assert (not (= x64 x75)))
(assert (not (= x64 (_ bv7 8))))
(assert (not (= x64 (_ bv8 8))))
(assert (not (= x64 (_ bv5 8))))
(assert (not (= (_ bv2 8) x73)))
(assert (not (= (_ bv2 8) x74)))
(assert (not (= (_ bv2 8) x75)))
(assert (not (= (_ bv2 8) (_ bv7 8))))
(assert (not (= (_ bv2 8) (_ bv8 8))))
(assert (not (= (_ bv2 8) (_ bv5 8))))
(assert (not (= x73 x74)))
(assert (not (= x73 x75)))
(assert (not (= x73 (_ bv7 8))))
(assert (not (= x73 (_ bv8 8))))
(assert (not (= x73 (_ bv5 8))))
(assert (not (= x74 x75)))
(assert (not (= x74 (_ bv7 8))))
(assert (not (= x74 (_ bv8 8))))
(assert (not (= x74 (_ bv5 8))))
(assert (not (= x75 (_ bv7 8))))
(assert (not (= x75 (_ bv8 8))))
(assert (not (= x75 (_ bv5 8))))
(assert (not (= (_ bv7 8) (_ bv8 8))))
(assert (not (= (_ bv7 8) (_ bv5 8))))
(assert (not (= (_ bv8 8) (_ bv5 8))))
(assert (not (= (_ bv9 8) (_ bv3 8))))
(assert (not (= (_ bv9 8) x68)))
(assert (not (= (_ bv9 8) (_ bv6 8))))
(assert (not (= (_ bv9 8) x77)))
(assert (not (= (_ bv9 8) x78)))
(assert (not (= (_ bv9 8) x86)))
(assert (not (= (_ bv9 8) x87)))
(assert (not (= (_ bv9 8) x88)))
(assert (not (= (_ bv3 8) x68)))
(assert (not (= (_ bv3 8) (_ bv6 8))))
(assert (not (= (_ bv3 8) x77)))
(assert (not (= (_ bv3 8) x78)))
(assert (not (= (_ bv3 8) x86)))
(assert (not (= (_ bv3 8) x87)))
(assert (not (= (_ bv3 8) x88)))
(assert (not (= x68 (_ bv6 8))))
(assert (not (= x68 x77)))
(assert (not (= x68 x78)))
(assert (not (= x68 x86)))
(assert (not (= x68 x87)))
(assert (not (= x68 x88)))
(assert (not (= (_ bv6 8) x77)))
(assert (not (= (_ bv6 8) x78)))
(assert (not (= (_ bv6 8) x86)))
(assert (not (= (_ bv6 8) x87)))
(assert (not (= (_ bv6 8) x88)))
(assert (not (= x77 x78)))
(assert (not (= x77 x86)))
(assert (not (= x77 x87)))
(assert (not (= x77 x88)))
(assert (not (= x78 x86)))
(assert (not (= x78 x87)))
(assert (not (= x78 x88)))
(assert (not (= x86 x87)))
(assert (not (= x86 x88)))
(assert (not (= x87 x88)))
(check-sat)
(exit)
